14 31 76
1 5 3
1 12 2
2 4 3
2 5 4
2 7 4
2 8 4
3 6 5
3 14 2
4 5 2
4 6 3
4 7 1
4 9 4
4 10 2
4 12 2
5 6 5
5 8 3
5 10 1
5 12 4
5 13 5
6 9 5
7 9 2
7 11 5
7 13 1
8 11 2
8 12 5
8 13 2
9 13 2
9 14 1
10 12 5
10 13 3
12 13 4
